p cnf 412 698
6 28 27 76 0
6 28 27 -76 0
-1 31 -9 77 0
-1 31 -9 -77 0
49 -40 -50 78 0
49 -40 -50 -78 0
44 -6 50 79 0
44 -6 50 -79 0
53 -18 41 80 0
53 -18 41 -80 0
-42 72 -30 81 0
-42 72 -30 -81 0
1 -4 75 82 0
1 -4 75 -82 0
-5 -22 -59 83 0
-5 -22 -59 -83 0
37 -22 53 84 0
37 -22 53 -84 0
-26 -35 -47 85 0
-26 -35 -47 -85 0
67 -7 -35 86 0
67 -7 -35 -86 0
-66 75 42 87 0
-66 75 42 -87 0
-8 -13 36 88 0
-8 -13 36 -88 0
39 -28 36 89 0
39 -28 36 -89 0
46 -64 51 90 0
46 -64 51 -90 0
56 -46 22 91 0
56 -46 22 -91 0
53 -58 22 92 0
53 -58 22 -92 0
-35 -55 43 93 0
-35 -55 43 -93 0
-9 10 62 94 0
-9 10 62 -94 0
60 72 -14 95 0
60 72 -14 -95 0
-51 70 38 96 0
-51 70 38 -96 0
-19 62 -13 97 0
-19 62 -13 -97 0
-70 41 38 98 0
-70 41 38 -98 0
-72 45 -18 99 0
-72 45 -18 -99 0
8 73 -40 100 0
8 73 -40 -100 0
-14 10 -49 101 0
-14 10 -49 -101 0
6 -26 -45 102 0
6 -26 -45 -102 0
-2 61 -17 103 0
-2 61 -17 -103 0
-48 20 22 104 0
-48 20 22 -104 0
-33 11 -32 105 0
-33 11 -32 -105 0
51 46 74 106 0
51 46 74 -106 0
-7 -28 32 107 0
-7 -28 32 -107 0
-27 48 8 108 0
-27 48 8 -108 0
-21 -59 -51 109 0
-21 -59 -51 -109 0
2 6 65 110 0
2 6 65 -110 0
24 53 67 111 0
24 53 67 -111 0
-28 -7 40 112 0
-28 -7 40 -112 0
7 -9 -57 113 0
7 -9 -57 -113 0
46 -73 53 114 0
46 -73 53 -114 0
-75 -42 31 115 0
-75 -42 31 -115 0
11 -23 10 116 0
11 -23 10 -116 0
-14 -73 -17 117 0
-14 -73 -17 -117 0
-63 64 -8 118 0
-63 64 -8 -118 0
38 -49 58 119 0
38 -49 58 -119 0
-41 -70 -65 120 0
-41 -70 -65 -120 0
-29 -69 -13 121 0
-29 -69 -13 -121 0
-50 -10 55 122 0
-50 -10 55 -122 0
-66 51 26 123 0
-66 51 26 -123 0
-58 -59 -3 124 0
-58 -59 -3 -124 0
-64 39 -67 125 0
-64 39 -67 -125 0
-43 64 -45 126 0
-43 64 -45 -126 0
37 -2 49 127 0
37 -2 49 -127 0
54 -58 13 128 0
54 -58 13 -128 0
32 38 17 129 0
32 38 17 -129 0
32 -67 53 130 0
32 -67 53 -130 0
-73 -13 75 131 0
-73 -13 75 -131 0
-7 -29 28 132 0
-7 -29 28 -132 0
17 24 -3 133 0
17 24 -3 -133 0
63 59 21 134 0
63 59 21 -134 0
-18 -49 -16 135 0
-18 -49 -16 -135 0
7 70 -73 136 0
7 70 -73 -136 0
-33 43 -19 137 0
-33 43 -19 -137 0
7 -40 -12 138 0
7 -40 -12 -138 0
67 -57 -22 139 0
67 -57 -22 -139 0
-37 -3 14 140 0
-37 -3 14 -140 0
37 4 -5 141 0
37 4 -5 -141 0
-24 43 8 142 0
-24 43 8 -142 0
-30 -35 -69 143 0
-30 -35 -69 -143 0
5 -36 44 144 0
5 -36 44 -144 0
67 -10 31 145 0
67 -10 31 -145 0
15 -23 -31 146 0
15 -23 -31 -146 0
-60 -6 8 147 0
-60 -6 8 -147 0
21 -2 -72 148 0
21 -2 -72 -148 0
-2 -48 -1 149 0
-2 -48 -1 -149 0
73 -66 -58 150 0
73 -66 -58 -150 0
55 11 -66 151 0
55 11 -66 -151 0
-51 14 53 152 0
-51 14 53 -152 0
20 -25 -26 153 0
20 -25 -26 -153 0
-56 40 -42 154 0
-56 40 -42 -154 0
30 7 31 155 0
30 7 31 -155 0
-55 15 -36 156 0
-55 15 -36 -156 0
-19 -1 4 157 0
-19 -1 4 -157 0
-20 4 -33 158 0
-20 4 -33 -158 0
40 -75 -36 159 0
40 -75 -36 -159 0
46 10 53 160 0
46 10 53 -160 0
-27 -2 -63 161 0
-27 -2 -63 -161 0
-65 52 -55 162 0
-65 52 -55 -162 0
-6 -40 20 163 0
-6 -40 20 -163 0
17 -58 52 164 0
17 -58 52 -164 0
-68 -48 75 165 0
-68 -48 75 -165 0
21 -70 38 166 0
21 -70 38 -166 0
-60 32 66 167 0
-60 32 66 -167 0
-27 -23 -66 168 0
-27 -23 -66 -168 0
-63 -16 -33 169 0
-63 -16 -33 -169 0
-62 31 44 170 0
-62 31 44 -170 0
72 -45 -32 171 0
72 -45 -32 -171 0
-48 37 -31 172 0
-48 37 -31 -172 0
-66 -28 -71 173 0
-66 -28 -71 -173 0
-30 62 -12 174 0
-30 62 -12 -174 0
58 -13 4 175 0
58 -13 4 -175 0
63 70 -73 176 0
63 70 -73 -176 0
-19 -2 11 177 0
-19 -2 11 -177 0
22 31 -40 178 0
22 31 -40 -178 0
13 41 -26 179 0
13 41 -26 -179 0
73 11 -64 180 0
73 11 -64 -180 0
30 -23 57 181 0
30 -23 57 -181 0
2 61 -12 182 0
2 61 -12 -182 0
-24 -56 7 183 0
-24 -56 7 -183 0
-26 11 58 184 0
-26 11 58 -184 0
27 33 -21 185 0
27 33 -21 -185 0
-2 63 -5 186 0
-2 63 -5 -186 0
68 16 -33 187 0
68 16 -33 -187 0
-55 -51 -47 188 0
-55 -51 -47 -188 0
-3 -64 56 189 0
-3 -64 56 -189 0
72 67 48 190 0
72 67 48 -190 0
74 -9 69 191 0
74 -9 69 -191 0
50 -60 -23 192 0
50 -60 -23 -192 0
-73 43 -27 193 0
-73 43 -27 -193 0
-15 31 54 194 0
-15 31 54 -194 0
10 12 -58 195 0
10 12 -58 -195 0
28 26 -57 196 0
28 26 -57 -196 0
5 -1 -13 197 0
5 -1 -13 -197 0
-10 -31 14 198 0
-10 -31 14 -198 0
-69 15 -57 199 0
-69 15 -57 -199 0
-73 -42 9 200 0
-73 -42 9 -200 0
44 -24 -50 201 0
44 -24 -50 -201 0
15 -58 -68 202 0
15 -58 -68 -202 0
15 -5 -13 203 0
15 -5 -13 -203 0
32 -52 -11 204 0
32 -52 -11 -204 0
12 37 8 205 0
12 37 8 -205 0
46 61 26 206 0
46 61 26 -206 0
12 -25 -63 207 0
12 -25 -63 -207 0
61 -67 -74 208 0
61 -67 -74 -208 0
-52 -20 -5 209 0
-52 -20 -5 -209 0
1 21 -52 210 0
1 21 -52 -210 0
67 22 6 211 0
67 22 6 -211 0
24 57 -72 212 0
24 57 -72 -212 0
14 -26 39 213 0
14 -26 39 -213 0
6 22 27 214 0
6 22 27 -214 0
55 12 -31 215 0
55 12 -31 -215 0
10 24 -15 216 0
10 24 -15 -216 0
24 58 -29 217 0
24 58 -29 -217 0
73 24 -13 218 0
73 24 -13 -218 0
-44 -41 5 219 0
-44 -41 5 -219 0
6 -30 -27 220 0
6 -30 -27 -220 0
-29 70 -6 221 0
-29 70 -6 -221 0
-14 -33 23 222 0
-14 -33 23 -222 0
-30 51 56 223 0
-30 51 56 -223 0
25 -55 56 224 0
25 -55 56 -224 0
-44 56 -60 225 0
-44 56 -60 -225 0
-53 46 -39 226 0
-53 46 -39 -226 0
-24 -27 -5 227 0
-24 -27 -5 -227 0
-4 -24 -33 228 0
-4 -24 -33 -228 0
-75 -14 -24 229 0
-75 -14 -24 -229 0
-11 12 -54 230 0
-11 12 -54 -230 0
40 -59 -41 231 0
40 -59 -41 -231 0
-51 66 -6 232 0
-51 66 -6 -232 0
-38 40 23 233 0
-38 40 23 -233 0
-40 23 -26 234 0
-40 23 -26 -234 0
-62 13 5 235 0
-62 13 5 -235 0
36 -49 68 236 0
36 -49 68 -236 0
-55 28 -26 237 0
-55 28 -26 -237 0
59 -46 -27 238 0
59 -46 -27 -238 0
-18 -5 73 239 0
-18 -5 73 -239 0
-37 55 13 240 0
-37 55 13 -240 0
-51 -55 -70 241 0
-51 -55 -70 -241 0
3 36 74 242 0
3 36 74 -242 0
-15 5 52 243 0
-15 5 52 -243 0
16 -28 23 244 0
16 -28 23 -244 0
14 -33 70 245 0
14 -33 70 -245 0
48 -69 43 246 0
48 -69 43 -246 0
-19 11 12 247 0
-19 11 12 -247 0
60 -35 71 248 0
60 -35 71 -248 0
-42 -73 -36 249 0
-42 -73 -36 -249 0
68 26 -45 250 0
68 26 -45 -250 0
67 72 53 251 0
67 72 53 -251 0
-47 30 -37 252 0
-47 30 -37 -252 0
-3 61 -27 253 0
-3 61 -27 -253 0
-11 52 -69 254 0
-11 52 -69 -254 0
-21 -24 14 255 0
-21 -24 14 -255 0
50 -35 -33 256 0
50 -35 -33 -256 0
54 40 75 257 0
54 40 75 -257 0
8 26 -61 258 0
8 26 -61 -258 0
31 33 48 259 0
31 33 48 -259 0
13 25 -28 260 0
13 25 -28 -260 0
63 65 29 261 0
63 65 29 -261 0
-65 70 62 262 0
-65 70 62 -262 0
-65 -17 -36 263 0
-65 -17 -36 -263 0
47 7 17 264 0
47 7 17 -264 0
-22 -44 -49 265 0
-22 -44 -49 -265 0
56 -49 73 266 0
56 -49 73 -266 0
-66 -60 6 267 0
-66 -60 6 -267 0
46 -11 51 268 0
46 -11 51 -268 0
67 68 -51 269 0
67 68 -51 -269 0
32 -68 39 270 0
32 -68 39 -270 0
-50 -42 -72 271 0
-50 -42 -72 -271 0
-67 34 -46 272 0
-67 34 -46 -272 0
-13 60 50 273 0
-13 60 50 -273 0
-23 72 -30 274 0
-23 72 -30 -274 0
69 -38 46 275 0
69 -38 46 -275 0
-56 -19 -74 276 0
-56 -19 -74 -276 0
38 -57 74 277 0
38 -57 74 -277 0
47 -67 72 278 0
47 -67 72 -278 0
58 -2 73 279 0
58 -2 73 -279 0
66 69 42 280 0
66 69 42 -280 0
-67 -7 29 281 0
-67 -7 29 -281 0
31 21 -2 282 0
31 21 -2 -282 0
-43 1 47 283 0
-43 1 47 -283 0
-41 5 28 284 0
-41 5 28 -284 0
42 -7 -21 285 0
42 -7 -21 -285 0
-19 34 52 286 0
-19 34 52 -286 0
68 55 -69 287 0
68 55 -69 -287 0
52 9 -20 288 0
52 9 -20 -288 0
57 -35 73 289 0
57 -35 73 -289 0
-62 57 45 290 0
-62 57 45 -290 0
-14 58 68 291 0
-14 58 68 -291 0
-54 -62 7 292 0
-54 -62 7 -292 0
-21 -48 -23 293 0
-21 -48 -23 -293 0
11 -45 -12 294 0
11 -45 -12 -294 0
33 -52 -44 295 0
33 -52 -44 -295 0
17 -61 -51 296 0
17 -61 -51 -296 0
-36 -26 -43 297 0
-36 -26 -43 -297 0
57 -19 -11 298 0
57 -19 -11 -298 0
-56 71 43 299 0
-56 71 43 -299 0
55 36 -9 300 0
55 36 -9 -300 0
-16 -54 42 301 0
-16 -54 42 -301 0
48 -23 40 302 0
48 -23 40 -302 0
-54 -47 -56 303 0
-54 -47 -56 -303 0
63 31 -36 304 0
63 31 -36 -304 0
-63 3 74 305 0
-63 3 74 -305 0
53 42 15 306 0
53 42 15 -306 0
-33 5 25 307 0
-33 5 25 -307 0
34 -74 61 308 0
34 -74 61 -308 0
55 51 67 309 0
55 51 67 -309 0
-54 -69 -18 310 0
-54 -69 -18 -310 0
13 -43 -10 311 0
13 -43 -10 -311 0
-28 18 -47 312 0
-28 18 -47 -312 0
-67 -48 -65 313 0
-67 -48 -65 -313 0
12 -42 28 314 0
12 -42 28 -314 0
17 35 26 315 0
17 35 26 -315 0
2 -24 -59 316 0
2 -24 -59 -316 0
53 -4 62 317 0
53 -4 62 -317 0
15 47 49 318 0
15 47 49 -318 0
57 34 -4 319 0
57 34 -4 -319 0
-42 53 20 320 0
-42 53 20 -320 0
-9 14 56 321 0
-9 14 56 -321 0
36 3 34 322 0
36 3 34 -322 0
-24 -42 61 323 0
-24 -42 61 -323 0
34 27 41 324 0
34 27 41 -324 0
-22 -3 -55 325 0
-22 -3 -55 -325 0
-73 -3 5 326 0
-73 -3 5 -326 0
-9 -30 -33 327 0
-9 -30 -33 -327 0
-56 -75 -25 328 0
-56 -75 -25 -328 0
49 -30 -22 329 0
49 -30 -22 -329 0
-17 -13 -60 330 0
-17 -13 -60 -330 0
-62 51 -57 331 0
-62 51 -57 -331 0
-22 36 -6 332 0
-22 36 -6 -332 0
-37 59 -57 333 0
-37 59 -57 -333 0
56 74 -8 334 0
56 74 -8 -334 0
-59 29 -11 335 0
-59 29 -11 -335 0
22 11 -40 336 0
22 11 -40 -336 0
-55 24 28 337 0
-55 24 28 -337 0
43 38 -15 338 0
43 38 -15 -338 0
3 4 -38 339 0
3 4 -38 -339 0
9 65 4 340 0
9 65 4 -340 0
-9 -55 -38 341 0
-9 -55 -38 -341 0
-40 38 -64 342 0
-40 38 -64 -342 0
23 66 -28 343 0
23 66 -28 -343 0
-2 17 -55 344 0
-2 17 -55 -344 0
14 -36 50 345 0
14 -36 50 -345 0
45 64 -62 346 0
45 64 -62 -346 0
47 -2 8 347 0
47 -2 8 -347 0
-25 -17 22 348 0
-25 -17 22 -348 0
28 56 52 349 0
28 56 52 -349 0
-68 -34 39 350 0
-68 -34 39 -350 0
49 20 -8 351 0
49 20 -8 -351 0
5 74 -46 352 0
5 74 -46 -352 0
-44 58 56 353 0
-44 58 56 -353 0
25 -62 15 354 0
25 -62 15 -354 0
-5 61 -68 355 0
-5 61 -68 -355 0
63 1 -71 356 0
63 1 -71 -356 0
-42 -13 -12 357 0
-42 -13 -12 -357 0
22 -28 -31 358 0
22 -28 -31 -358 0
36 -49 -5 359 0
36 -49 -5 -359 0
43 -29 32 360 0
43 -29 32 -360 0
-74 57 63 361 0
-74 57 63 -361 0
-35 59 -14 362 0
-35 59 -14 -362 0
-22 -60 -13 363 0
-22 -60 -13 -363 0
-43 -32 49 364 0
-43 -32 49 -364 0
-12 -36 45 365 0
-12 -36 45 -365 0
45 -46 6 366 0
45 -46 6 -366 0
-34 -75 -8 367 0
-34 -75 -8 -367 0
-32 -68 29 368 0
-32 -68 29 -368 0
44 -13 -55 369 0
44 -13 -55 -369 0
33 -73 -9 370 0
33 -73 -9 -370 0
27 -11 -26 371 0
27 -11 -26 -371 0
-56 -1 66 372 0
-56 -1 66 -372 0
-32 -6 -30 373 0
-32 -6 -30 -373 0
-9 18 -13 374 0
-9 18 -13 -374 0
-36 -68 71 375 0
-36 -68 71 -375 0
-25 -21 48 376 0
-25 -21 48 -376 0
42 34 -16 377 0
42 34 -16 -377 0
69 -54 -70 378 0
69 -54 -70 -378 0
23 47 62 379 0
23 47 62 -379 0
33 -71 14 380 0
33 -71 14 -380 0
65 -66 28 381 0
65 -66 28 -381 0
-52 -8 -39 382 0
-52 -8 -39 -382 0
-56 -33 38 383 0
-56 -33 38 -383 0
20 -4 48 384 0
20 -4 48 -384 0
-28 71 -4 385 0
-28 71 -4 -385 0
-48 -14 35 386 0
-48 -14 35 -386 0
-4 28 -8 387 0
-4 28 -8 -387 0
-27 -75 -5 388 0
-27 -75 -5 -388 0
65 70 64 389 0
65 70 64 -389 0
-45 -28 -23 390 0
-45 -28 -23 -390 0
-18 -40 61 391 0
-18 -40 61 -391 0
-52 44 63 392 0
-52 44 63 -392 0
31 37 -7 393 0
31 37 -7 -393 0
21 -14 -52 394 0
21 -14 -52 -394 0
-37 -20 -5 395 0
-37 -20 -5 -395 0
31 -10 38 396 0
31 -10 38 -396 0
-52 39 -45 397 0
-52 39 -45 -397 0
-46 54 -16 398 0
-46 54 -16 -398 0
35 -34 54 399 0
35 -34 54 -399 0
-64 -4 -49 400 0
-64 -4 -49 -400 0
401 402 403 404 0
401 402 403 -404 0
401 402 -403 404 0
401 402 -403 -404 0
401 -402 403 404 0
401 -402 403 -404 0
401 -402 -403 404 0
401 -402 -403 -404 0
-401 402 403 404 0
-401 402 403 -404 0
-401 402 -403 404 0
-401 402 -403 -404 0
-401 -402 403 404 0
-401 -402 403 -404 0
-401 -402 -403 404 0
-401 -402 -403 -404 0
405 406 407 408 0
405 406 407 -408 0
405 406 -407 408 0
405 406 -407 -408 0
405 -406 407 408 0
405 -406 407 -408 0
405 -406 -407 408 0
405 -406 -407 -408 0
-405 406 407 408 0
-405 406 407 -408 0
-405 406 -407 408 0
-405 406 -407 -408 0
-405 -406 407 408 0
-405 -406 407 -408 0
-405 -406 -407 408 0
-405 -406 -407 -408 0
409 410 411 412 0
409 410 411 -412 0
409 410 -411 412 0
409 410 -411 -412 0
409 -410 411 412 0
409 -410 411 -412 0
409 -410 -411 412 0
409 -410 -411 -412 0
-409 410 411 412 0
-409 410 411 -412 0
-409 410 -411 412 0
-409 410 -411 -412 0
-409 -410 411 412 0
-409 -410 411 -412 0
-409 -410 -411 412 0
-409 -410 -411 -412 0
